certificates/rado_a13_c179_N35.cnf
c Rad2 upper bound instance: x1 + 13*x2 - x3 = 179, interval [1,35]
p cnf 35 188
1 4 14 0
-1 -4 -14 0
1 15 17 0
-1 -15 -17 0
1 16 30 0
-1 -16 -30 0
2 5 14 0
-2 -5 -14 0
2 15 18 0
-2 -15 -18 0
2 16 31 0
-2 -16 -31 0
3 6 14 0
-3 -6 -14 0
3 15 19 0
-3 -15 -19 0
3 16 32 0
-3 -16 -32 0
4 7 14 0
-4 -7 -14 0
4 15 20 0
-4 -15 -20 0
4 16 33 0
-4 -16 -33 0
5 8 14 0
-5 -8 -14 0
5 15 21 0
-5 -15 -21 0
5 16 34 0
-5 -16 -34 0
6 9 14 0
-6 -9 -14 0
6 15 22 0
-6 -15 -22 0
6 16 35 0
-6 -16 -35 0
7 10 14 0
-7 -10 -14 0
7 15 23 0
-7 -15 -23 0
8 11 14 0
-8 -11 -14 0
8 15 24 0
-8 -15 -24 0
9 12 14 0
-9 -12 -14 0
9 15 25 0
-9 -15 -25 0
10 13 14 0
-10 -13 -14 0
10 15 26 0
-10 -15 -26 0
1 11 13 0
-1 -11 -13 0
11 14 0
-11 -14 0
11 15 27 0
-11 -15 -27 0
2 12 13 0
-2 -12 -13 0
12 14 15 0
-12 -14 -15 0
12 15 28 0
-12 -15 -28 0
3 13 0
-3 -13 0
13 14 16 0
-13 -14 -16 0
13 15 29 0
-13 -15 -29 0
4 13 14 0
-4 -13 -14 0
14 17 0
-14 -17 0
14 15 30 0
-14 -15 -30 0
5 13 15 0
-5 -13 -15 0
14 15 18 0
-14 -15 -18 0
15 31 0
-15 -31 0
6 13 16 0
-6 -13 -16 0
14 16 19 0
-14 -16 -19 0
15 16 32 0
-15 -16 -32 0
7 13 17 0
-7 -13 -17 0
14 17 20 0
-14 -17 -20 0
15 17 33 0
-15 -17 -33 0
8 13 18 0
-8 -13 -18 0
14 18 21 0
-14 -18 -21 0
15 18 34 0
-15 -18 -34 0
9 13 19 0
-9 -13 -19 0
14 19 22 0
-14 -19 -22 0
15 19 35 0
-15 -19 -35 0
10 13 20 0
-10 -13 -20 0
14 20 23 0
-14 -20 -23 0
11 13 21 0
-11 -13 -21 0
14 21 24 0
-14 -21 -24 0
12 13 22 0
-12 -13 -22 0
14 22 25 0
-14 -22 -25 0
13 23 0
-13 -23 0
14 23 26 0
-14 -23 -26 0
1 12 24 0
-1 -12 -24 0
13 14 24 0
-13 -14 -24 0
14 24 27 0
-14 -24 -27 0
2 12 25 0
-2 -12 -25 0
13 15 25 0
-13 -15 -25 0
14 25 28 0
-14 -25 -28 0
3 12 26 0
-3 -12 -26 0
13 16 26 0
-13 -16 -26 0
14 26 29 0
-14 -26 -29 0
4 12 27 0
-4 -12 -27 0
13 17 27 0
-13 -17 -27 0
14 27 30 0
-14 -27 -30 0
5 12 28 0
-5 -12 -28 0
13 18 28 0
-13 -18 -28 0
14 28 31 0
-14 -28 -31 0
6 12 29 0
-6 -12 -29 0
13 19 29 0
-13 -19 -29 0
14 29 32 0
-14 -29 -32 0
7 12 30 0
-7 -12 -30 0
13 20 30 0
-13 -20 -30 0
14 30 33 0
-14 -30 -33 0
8 12 31 0
-8 -12 -31 0
13 21 31 0
-13 -21 -31 0
14 31 34 0
-14 -31 -34 0
9 12 32 0
-9 -12 -32 0
13 22 32 0
-13 -22 -32 0
14 32 35 0
-14 -32 -35 0
10 12 33 0
-10 -12 -33 0
13 23 33 0
-13 -23 -33 0
11 12 34 0
-11 -12 -34 0
13 24 34 0
-13 -24 -34 0
12 35 0
-12 -35 0
13 25 35 0
-13 -25 -35 0
