certificates/rado_a13_c179_N35.drat
14 -33 12 0
-33 -34 -35 0
-15 -10 12 0
15 12 0
d 15 28 12 0
-35 0
12 0
-15 0
31 0
19 0
-8 0
24 0
-1 0
17 0
-14 0
11 0
32 0
30 0
18 0
5 0
4 0
-34 0
-9 0
-7 0
-28 0
-27 0
6 0
25 0
10 0
23 0
-29 0
-2 0
-33 0
-13 0
0
